File : Instances/p61
Used 66s
26395

0 0 1 1 0 0 0 0 1 0 0 0 1 0 0 0 0 0 0 1 0 0 0 1 1 1 1 1 1 0 
27 19 2 27 2 12 2 27 27 28 26 28 3 3 28 25 3 8 27 27 27 24 23 24 23 27 27 19 26 2 19 19 26 24 27 12 8 8 24 24 25 8 12 26 8 19 3 2 19 19 24 24 24 24 8 12 25 8 27 25 26 28 25 8 3 25 23 19 28 25 25 12 19 8 23 23 8 23 8 24 23 23 26 25 26 3 19 2 27 25 28 19 25 25 23 3 28 12 2 28 28 2 12 25 26 24 26 24 27 3 19 26 27 12 12 8 28 25 28 8 26 25 28 19 26 24 2 12 26 28 28 24 12 8 3 8 3 3 28 23 12 27 12 25 25 2 24 24 27 25 24 28 23 28 8 28 2 2 3 3 3 27 23 24 23 27 23 26 3 2 23 8 19 8 26 2 24 8 26 23 2 2 2 19 12 8 28 23 27 2 2 2 19 19 25 12 25 2 23 19 
